20
0 1 0.28 0.28
0 2 0.02 0.02
0 3 0.28 0.28
0 4 0.71 0.32
0 5 0.38 0.33
0 6 0.54 0.25
0 7 0.06 0.06
0 8 0.42 0.16
0 9 0.45 0.18
0 10 0.25 0.25
0 11 0.28 0.28
0 12 0.28 0.28
0 13 0.12 0.12
0 14 0.4 0.4
0 15 0.48 0.44
0 16 0.26 0.26
0 17 0.68 0.35
0 18 0.6 0.1
0 19 0.81 0.22
1 2 0.66 0.26
1 3 0.85 0.21
1 4 0.9 0.26
1 5 0.5 0.5
1 6 0.69 0.03
1 7 0.29 0.29
1 8 0.59 0.25
1 9 0.14 0.14
1 10 0.23 0.23
1 11 0.72 0.25
1 12 0.79 0.27
1 13 0.35 0.35
1 14 0.24 0.24
1 15 0.86 0.42
1 16 0.18 0.18
1 17 0.62 0.07
1 18 0.18 0.18
1 19 0.89 0.21
2 3 0.3 0.3
2 4 0.34 0.34
2 5 0.4 0.35
2 6 0.23 0.23
2 7 0.5 0.08
2 8 0.18 0.18
2 9 0.16 0.16
2 10 0.27 0.27
2 11 0.58 0.3
2 12 0.3 0.3
2 13 0.51 0.14
2 14 0.55 0.38
2 15 0.78 0.42
2 16 0.43 0.28
2 17 0.33 0.33
2 18 0.44 0.08
2 19 0.2 0.2
3 4 0.91 0.17
3 5 0.68 0.46
3 6 0.68 0.24
3 7 0.61 0.22
3 8 0.41 0.23
3 9 0.78 0.29
3 10 0.66 0.25
3 11 0.11 0.11
3 12 0.13 0.13
3 13 0.44 0.28
3 14 0.18 0.18
3 15 0.76 0.35
3 16 0.39 0.39
3 17 0.14 0.14
3 18 0.38 0.38
3 19 0.28 0.28
4 5 0.64 0.41
4 6 0.27 0.27
4 7 0.26 0.26
4 8 0.67 0.18
4 9 0.2 0.2
4 10 0.2 0.2
4 11 0.76 0.06
4 12 0.04 0.04
4 13 0.2 0.2
4 14 0.78 0.35
4 15 0.7 0.3
4 16 0.38 0.38
4 17 0.69 0.31
4 18 0.76 0.34
4 19 0.56 0.22
5 6 0.53 0.53
5 7 0.37 0.37
5 8 0.46 0.46
5 9 0.58 0.51
5 10 0.46 0.46
5 11 0.35 0.35
5 12 0.37 0.37
5 13 0.42 0.31
5 14 0.57 0.5
5 15 0.44 0.44
5 16 0.67 0.43
5 17 0.7 0.46
5 18 0.4 0.4
5 19 0.45 0.45
6 7 0.28 0.26
6 8 0.46 0.25
6 9 0.17 0.17
6 10 0.26 0.26
6 11 0.22 0.22
6 12 0.58 0.24
6 13 0.32 0.32
6 14 0.27 0.24
6 15 0.5 0.42
6 16 0.59 0.2
6 17 0.1 0.1
6 18 0.21 0.21
6 19 0.71 0.24
7 8 0.18 0.18
7 9 0.24 0.24
7 10 0.24 0.24
7 11 0.33 0.24
7 12 0.61 0.22
7 13 0.64 0.06
7 14 0.4 0.4
7 15 0.66 0.46
7 16 0.2 0.2
7 17 0.75 0.36
7 18 0.16 0.16
7 19 0.67 0.26
8 9 0.65 0.3
8 10 0.26 0.26
8 11 0.12 0.12
8 12 0.14 0.14
8 13 0.24 0.24
8 14 0.41 0.41
8 15 0.71 0.34
8 16 0.4 0.28
8 17 0.32 0.32
8 18 0.16 0.16
8 19 0.57 0.34
9 10 0.32 0.32
9 11 0.62 0.18
9 12 0.63 0.16
9 13 0.58 0.3
9 14 0.3 0.3
9 15 0.68 0.4
9 16 0.63 0.32
9 17 0.67 0.21
9 18 0.64 0.17
9 19 0.35 0.35
10 11 0.14 0.14
10 12 0.59 0.16
10 13 0.18 0.18
10 14 0.42 0.42
10 15 0.72 0.38
10 16 0.54 0.41
10 17 0.26 0.26
10 18 0.75 0.35
10 19 0.66 0.38
11 12 0.02 0.02
11 13 0.56 0.18
11 14 0.32 0.29
11 15 0.24 0.24
11 16 0.4 0.4
11 17 0.25 0.25
11 18 0.31 0.28
11 19 0.28 0.28
12 13 0.16 0.16
12 14 0.31 0.31
12 15 0.59 0.26
12 16 0.42 0.42
12 17 0.27 0.27
12 18 0.43 0.3
12 19 0.26 0.26
13 14 0.78 0.46
13 15 0.4 0.4
13 16 0.46 0.26
13 17 0.34 0.34
13 18 0.22 0.22
13 19 0.2 0.2
14 15 0.36 0.18
14 16 0.81 0.42
14 17 0.31 0.31
14 18 0.42 0.42
14 19 0.41 0.41
15 16 0.48 0.48
15 17 0.64 0.37
15 18 0.84 0.44
15 19 0.43 0.23
16 17 0.72 0.25
16 18 0.58 0.36
16 19 0.32 0.32
17 18 0.45 0.25
17 19 0.57 0.14
18 19 0.58 0.21
